20
35
6 7 8 16 18 
3 5 14 19 20 
6 8 11 13 17 
1 4 11 16 20 
2 5 8 12 20 
1 9 14 16 17 
5 10 11 15 19 
2 4 11 14 20 
4 11 12 15 17 
8 11 12 15 18 
7 8 10 11 19 
3 7 12 19 20 
1 3 8 18 20 
8 11 14 16 19 
2 6 9 18 19 
1 
2 
3 
4 
5 
6 
7 
8 
9 
10 
11 
12 
13 
14 
15 
16 
17 
18 
19 
20 
